0.0	50.2	82.4	32.8	33.2	35.4	86.9	79.1	
50.2	0.0	72.6	72.5	17.1	80.2	39.9	68.9	
82.4	72.6	0.0	71.7	70.9	82.5	67.9	3.8	
32.8	72.5	71.7	0.0	56.6	11.0	101.3	69.4	
33.2	17.1	70.9	56.6	0.0	63.7	54.7	67.2	
35.4	80.2	82.5	11.0	63.7	0.0	111.0	80.3	
86.9	39.9	67.9	101.3	54.7	111.0	0.0	65.1	
79.1	68.9	3.8	69.4	67.2	80.3	65.1	0.0	
